;; sequence(s): A106842
;; terms: 1 3 49 2197 194481 28629151 6321363049 1954897493193 806460091894081 427929800129788411 283942098606901565601 230339304218442143770717 224282727500720205065439601 258145266804692077858261512663
;; small program: loop2(((1 + y) * (x * y)) + x, y, x, 1, x)
;; fast program: (1 + ((x * x) + x)) * loop2(x * y, y, x - 1, 1, 1 + ((x * x) + x))
(set-logic UFNIA)
(declare-fun f0 (Int Int) Int)
(declare-fun g0 (Int Int) Int)
(declare-fun h0 (Int) Int)
(declare-fun i0 () Int)
(declare-fun j0 (Int) Int)
(declare-fun u0 (Int Int Int) Int)
(declare-fun v0 (Int Int Int) Int)
(declare-fun w0 (Int) Int)
(declare-fun small (Int) Int)
(declare-fun f1 (Int Int) Int)
(declare-fun g1 (Int Int) Int)
(declare-fun h1 (Int) Int)
(declare-fun i1 () Int)
(declare-fun j1 (Int) Int)
(declare-fun u1 (Int Int Int) Int)
(declare-fun v1 (Int Int Int) Int)
(declare-fun w1 (Int) Int)
(declare-fun fast (Int) Int)
(assert (forall ((x Int) (y Int)) (= (f0 x y) (+ (* (+ 1 y) (* x y)) x))))
(assert (forall ((x Int) (y Int)) (= (g0 x y) y)))
(assert (forall ((x Int)) (= (h0 x) x)))
(assert (= i0 1))
(assert (forall ((x Int)) (= (j0 x) x)))
(assert (forall ((x Int) (y Int) (z Int)) (= (u0 x y z) (ite (<= x 0) y (f0 (u0 (- x 1) y z) (v0 (- x 1) y z))))))
(assert (forall ((x Int) (y Int) (z Int)) (= (v0 x y z) (ite (<= x 0) z (g0 (u0 (- x 1) y z) (v0 (- x 1) y z))))))
(assert (forall ((x Int)) (= (w0 x) (u0 (h0 x) i0 (j0 x)))))
(assert (forall ((x Int)) (= (small x) (w0 x))))
(assert (forall ((x Int) (y Int)) (= (f1 x y) (* x y))))
(assert (forall ((x Int) (y Int)) (= (g1 x y) y)))
(assert (forall ((x Int)) (= (h1 x) (- x 1))))
(assert (= i1 1))
(assert (forall ((x Int)) (= (j1 x) (+ 1 (+ (* x x) x)))))
(assert (forall ((x Int) (y Int) (z Int)) (= (u1 x y z) (ite (<= x 0) y (f1 (u1 (- x 1) y z) (v1 (- x 1) y z))))))
(assert (forall ((x Int) (y Int) (z Int)) (= (v1 x y z) (ite (<= x 0) z (g1 (u1 (- x 1) y z) (v1 (- x 1) y z))))))
(assert (forall ((x Int)) (= (w1 x) (u1 (h1 x) i1 (j1 x)))))
(assert (forall ((x Int)) (= (fast x) (* (+ 1 (+ (* x x) x)) (w1 x)))))
(assert (exists ((c Int)) (and (>= c 0) (not (= (small c) (fast c))))))
(check-sat)
